(set-logic QF_BV)
(set-info :source |Converted by Dunbo Cai. dunbocai@gmail.com|)
(set-info :smt-lib-version 2.0)
(set-info :category "convex body with variables with domain [-15, 15]")
(declare-fun x_0 () (_ BitVec 32))
(declare-fun x_1 () (_ BitVec 32))
(declare-fun x_2 () (_ BitVec 32))
(declare-fun x_3 () (_ BitVec 32))
(declare-fun x_4 () (_ BitVec 32))
(assert (bvsge x_0 (bvsub (_ bv0 32) (_ bv15 32))) )
(assert (bvsle x_0 (_ bv15 32)) )
(assert (bvsge x_1 (bvsub (_ bv0 32) (_ bv15 32))) )
(assert (bvsle x_1 (_ bv15 32)) )
(assert (bvsge x_2 (bvsub (_ bv0 32) (_ bv15 32))) )
(assert (bvsle x_2 (_ bv15 32)) )
(assert (bvsge x_3 (bvsub (_ bv0 32) (_ bv15 32))) )
(assert (bvsle x_3 (_ bv15 32)) )
(assert (bvsge x_4 (bvsub (_ bv0 32) (_ bv15 32))) )
(assert (bvsle x_4 (_ bv15 32)) )
(assert (bvsle (bvadd (bvmul (bvsdiv (_ bv40 32) (_ bv1 32) ) x_0 )(bvmul (bvsdiv (_ bv4 32) (_ bv1 32) ) x_1 )(bvmul (bvsub (_ bv0 32) (bvsdiv (_ bv3 32) (_ bv1 32) )) x_2 )(bvmul (bvsdiv (_ bv192 32) (_ bv1 32) ) x_4 )) (bvmul (bvsdiv (_ bv135 32) (_ bv1 32) ) (_ bv1 32) ) )) 
(assert (bvsle (bvadd (bvmul (bvsdiv (_ bv8 32) (_ bv1 32) ) x_1 )(bvmul (bvsdiv (_ bv4 32) (_ bv1 32) ) x_2 )(bvmul (bvsub (_ bv0 32) (bvsdiv (_ bv3 32) (_ bv1 32) )) x_3 )(bvmul (bvsdiv (_ bv14 32) (_ bv1 32) ) x_4 )) (bvmul (bvsdiv (_ bv16 32) (_ bv1 32) ) (_ bv1 32) ) )) 
(assert (bvsle (bvadd (bvmul (bvsdiv (_ bv50 32) (_ bv1 32) ) x_0 )(bvmul (bvsub (_ bv0 32) (bvsdiv (_ bv5 32) (_ bv1 32) )) x_1 )(bvmul (bvsdiv (_ bv10 32) (_ bv1 32) ) x_2 )(bvmul (bvsdiv (_ bv3 32) (_ bv1 32) ) x_3 )) (bvmul (bvsdiv (_ bv133 32) (_ bv1 32) ) (_ bv1 32) ) )) 
(assert (bvsle (bvadd (bvmul (bvsdiv (_ bv16 32) (_ bv1 32) ) x_1 )(bvmul (bvsdiv (_ bv72 32) (_ bv1 32) ) x_2 )(bvmul (bvsub (_ bv0 32) (bvsdiv (_ bv3 32) (_ bv1 32) )) x_3 )(bvmul (bvsdiv (_ bv48 32) (_ bv1 32) ) x_4 )) (bvmul (bvsub (_ bv0 32) (bvsdiv (_ bv20 32) (_ bv1 32) )) (_ bv1 32) ) )) 
(assert (bvsle (bvadd (bvmul (bvsdiv (_ bv360 32) (_ bv1 32) ) x_1 )(bvmul (bvsub (_ bv0 32) (bvsdiv (_ bv63 32) (_ bv1 32) )) x_2 )(bvmul (bvsdiv (_ bv56 32) (_ bv1 32) ) x_4 )) (bvmul (bvsub (_ bv0 32) (bvsdiv (_ bv1665 32) (_ bv1 32) )) (_ bv1 32) ) )) 
(assert (bvsle (bvadd (bvmul (bvsub (_ bv0 32) (bvsdiv (_ bv7 32) (_ bv1 32) )) x_2 )(bvmul (bvsub (_ bv0 32) (bvsdiv (_ bv40 32) (_ bv1 32) )) x_4 )) (bvmul (bvsdiv (_ bv91 32) (_ bv1 32) ) (_ bv1 32) ) )) 
(assert (bvsle (bvadd (bvmul (bvsub (_ bv0 32) (bvsdiv (_ bv216 32) (_ bv1 32) )) x_0 )(bvmul (bvsdiv (_ bv36 32) (_ bv1 32) ) x_1 )(bvmul (bvsub (_ bv0 32) (bvsdiv (_ bv400 32) (_ bv1 32) )) x_2 )(bvmul (bvsdiv (_ bv315 32) (_ bv1 32) ) x_3 )(bvmul (bvsdiv (_ bv320 32) (_ bv1 32) ) x_4 )) (bvmul (bvsdiv (_ bv2128 32) (_ bv1 32) ) (_ bv1 32) ) )) 
(assert (bvsle (bvadd (bvmul (bvsub (_ bv0 32) (bvsdiv (_ bv45 32) (_ bv1 32) )) x_1 )(bvmul (bvsdiv (_ bv36 32) (_ bv1 32) ) x_4 )) (bvmul (bvsdiv (_ bv225 32) (_ bv1 32) ) (_ bv1 32) ) )) 
(assert (bvsle (bvadd (bvmul (bvsdiv (_ bv12 32) (_ bv1 32) ) x_0 )(bvmul (bvsdiv (_ bv3 32) (_ bv1 32) ) x_2 )(bvmul (bvsdiv (_ bv2 32) (_ bv1 32) ) x_3 )) (bvmul (bvsdiv (_ bv193 32) (_ bv1 32) ) (_ bv1 32) ) )) 
(assert (bvsle (bvadd (bvmul (bvsub (_ bv0 32) (bvsdiv (_ bv4 32) (_ bv1 32) )) x_0 )(bvmul (bvsdiv (_ bv4 32) (_ bv1 32) ) x_1 )(bvmul (bvsub (_ bv0 32) (bvsdiv (_ bv2 32) (_ bv1 32) )) x_2 )(bvmul (bvsub (_ bv0 32) (bvsdiv (_ bv3 32) (_ bv1 32) )) x_4 )) (bvmul (bvsdiv (_ bv46 32) (_ bv1 32) ) (_ bv1 32) ) )) 
(assert (bvsle (bvadd (bvmul (bvsdiv (_ bv16 32) (_ bv1 32) ) x_0 )(bvmul (bvsdiv (_ bv14 32) (_ bv1 32) ) x_1 )(bvmul (bvsdiv (_ bv3 32) (_ bv1 32) ) x_2 )(bvmul (bvsub (_ bv0 32) (bvsdiv (_ bv8 32) (_ bv1 32) )) x_3 )(bvmul (bvsdiv (_ bv2 32) (_ bv1 32) ) x_4 )) (bvmul (bvsdiv (_ bv1 32) (_ bv1 32) ) (_ bv1 32) ) )) 

(check-sat)
(exit)